r_100_25_8
100
  0   0  50  71   0   0   0   0  91   0  95   0  95   0   0   0   0   0  81  67   0   0   0   0   0  68   0   0  77   0   0   0  86   0   0   0   0   0  11   0   0   0   0   0  18  62   0   0  45   0  89   0   0   0   0   0  88   0   0   0  68   0  66   0   0   0   0   0 100   0   0   0   0   0  35   0   0   0   0  36  39   0   0   0   0   0   0  24   0   0   0   0   0  24  72  88   0   0   0   0 
  0   0  25   0   0   0   0   0  94  17   0   0   0   0   0   0  99   0   0  86  31   0   0   0   0   0   0   0  73  81   0   0   0   0  30  66   0   0   0   0  45  13   0  13  45  84   0  83   0  10   0   0  96   0   0   0   0  19  68   0   0   0  92   0   0   0   0   0   0   0   0   0   0   0   0   0   0   0   0   0   0   0   0   0  55   0   0  18   0   0  75   0   0   0   0   0   0  92  75 
 93  73   0   0  10  60   9  48   0  55   0   0   0   0  88  23   0   0   0   0   0   0   2  92   0   0   0   0   0  73   0   0   0   0   0  22   0   0   8   0   0  91   0   3   0   0   0   0  85   0   0   0  45   0   0   0   0  11   0  51   0   0   0  48   0   0   0   0   0   0   0   0   0  87   0   0  79   0  23   0   0  31  17   0  75   0   0   0   0   0   0   0   9   0   0   0   0   0 
  0   0   0  81   0   0   0   2   0   0   0  64   0   2   0  79  78   0   0   0   0   0   0  35   0   0   0  26  63   0   0   0   0   0   0   0   0   0   0  78   0  89   0 100  65   0  88   0   0   0   0   0   0   0  65  34   0   0   0   0   0   0  50   0   0   0  61   0  38   0   0 100   0   0  17   0   0   0   0   0   0   0  87   0  77   0   0  68   6  12   0   0   0   0  56   0   0 
 72   0   0   0  12  78   0   0   0   0   0   0   0  68   0   0   0  16  83   0   5   0  34   0   0   0   0  21   0   0   0   0   0   0  13   0   0   0   0   0   0  90   0   0  82   0   0  15  18  80   0   0  75   0   0   0   0   0   0   0   0  48   0   0   4   0  20  59   0   0   0  35   0   0   0   0  70   0  38   0   0   0  87   0   0   0   0   0   0   0   0   0   0   0   0  89 
  0   0   0   0  69   0   0   0  98   0   0   0  17   0   0   0  88   0   0   0   0  26   0   0  86   0   0  19   0  41   0  11   0   0  12   0  28  99  39   0   0   0   0   0   0   0   0   0   0   0   0   0  38   0  28   0   0   0   0   0   0  31   0   0   0   0   0  90   0   0   0   0   0   0   0   0  12   0  75   0   0   0   0   0   0  31   0   0   0  56   0   0  14   0   0 
 16   0  67   0   0   0   0  40   0  68   0   0   0   0   0  85   0   0   0   0   0  63   0   0  10  20   0  11   0   0   0   0  11   0   0   6   0  96   0   0  60   0  97   0   0   0  28  29   0   0   0   0   0   0   0   0   0   0  33   0   0  21  96   0  29   0   0   0   0   0  67   0   0   6   0   0   0   0  10   0   0   0   0   4   0  92   0   0  26   0  33   0   0  36 
  0   0  93   0   0   0   0  47   0   0   0  64   0   0   0   0   0   0  65  27   0   0   0   0   0   0   0   0   0   0   0   3   0   0   0   0   0   0  10   0   0   0   0   0  10  46  60   0  16   0   0  58   0   0  16  12   0   0   0   0  87   0   0   0   0   0   0  14   0   0   0   0   0   0  12   0  60   0   0   0   0   0   0  21  96   0   0  58   0   0   0   0   0 
 23  84   0   3   0   0   0   0   0   0  91  72   0  39   0   0  21   0   0   0   0  41   0   0  29   0   0   0   0   0   0   1   0   0  85   0   6   5   0   0   0   0  70   0   0   0  53  82  24   0  91  89  86   0   0  29   0  34   0   0   0   0  71   0  74   0   0   0   0   0   0   0   0   0  61   0   0   0   8   0   0  91  51   0   0   0   0   0   0   0   0   0 
 50   0  42   0   0   0   0  48   0   0   0   0   0   0   0  78  74  54   0   0   0  53   0  85   0  92   0   0   0  36   0   0  72   0   0  35   0   0  33  49   0   0   0   0   0   0   0  15  69   0   0   0   0   0  14   0   0   0  64   0  68   0   0   0   0  59   5   0   0  33   0   0   0   0  51   0   0   0   0   0   0   0   0  43   0   0   0   0   0   0   0 
  0   0   0   0  75  15  78  68  60   0  45   0   0   0   0  20   0   0   0  55  74  29   0   0   0   0   0   0   0   0   0   0  76   0   0   0   0  87  65   0 100   0   0  55   0  71   0   2   0   0   0   0   0  83   0  39   0  71   0   0  49   0   0  98   0   0  97   0   0  26   0   3   0  19   0   0  80   0   0   0   0   0  20 100   0   0   0   0   0   0 
  0   0   0   0   0   0  48   0  88   0   0   0  58   0   0   0  88   0   0   0   0  75   0  15   0  21  53   0  35   0   3  88   0   0   0   0   0   0   0   0   0   0  84   0   0   0   0   0  38   0   0   0  70   0  39   0   0   0   0   0   0   0  84   7   0   0   0   0   0   0   0   0   0  92   0   0   0   0   0   0   0   0  95   0   0  78   0   0   0 
  0   0   0   0   0   0   0   0   0   0   0  89   0   0   0   0   0   0   0   0   0   0   0   0   0  19   0   0   0   0   0   0   0   0  85   0  66   6  42   0  39  40  19   0   0   0   0  39   0   0  18   0   0   0   0   0   0   0   0  82   0   0  32   0   0   0  12   0   0   0   0   3   0   0   0   0   0   0   0   0  96   0   0   0  63  70   0   0 
  0   0   0   0   0   0   0   0   0  13  89   0   0   0   0  55   0   0  63   0   0   0  28   0   0   0   0   0  73   0   0   0   0   0   0   4  85   0   0   0   0   0   0   0   0   0   0  40   0   0   0  44  35   0   0   0   0   0   0   0   0  79   0   4   0   0   0  76   0   0   6  78   0   0   0   0   0  18   0   0   0   0   0   0   0   0   8 
  0   0   0   0  14   0   0   0   0  27   0   0  54   0   0   0   0   0  76  72  97  95   6   0   0   0   5   7   0  80   0   0  66  47   0   0   0  82   0  18   0   0   0   0  34   0  28   0   0  15  92   0   0   0   0   0   0   0   8   0   0   0  64   0   0   0   0   4   0   0  71   0   0   0   0   0   0   0  11   0   0  66   0  55   0   0 
  0   0   0 100   0  17  32   0   0  57  27   0   0   0  56  92  70   0   0   0  88   0   0  45   0   0   0   0   0   0   0   0  63   0   0   0  44   0   0   0   0   0   0   0   0   0   0  90   0  95  89  20   0   0   0  19   0   0   0  84   0   0   0   0   0  57   0   0   0   0   0   0   0   0   0   0   0  58  45   0  18   0   0   0   0 
  0   9   0   0  15  65   0   0   0  56  57   0   0   0   0   0   0  58  52   0   0   0   0   0  81  74   0   0   0  45   0   0  52   0   0   0   0   0   0   0   0   0   0   0   0   0   0   0   0   0   0   3  41   0   0   0   0   0  23  48   0   0   0   0   0   0   0  72  40  89   0   0   0   0   0  98   0   0   0   0   0  39  56   0 
  0   0   0   0   0   0   0   0   0  46   0  66   0   0   0   0  90   0   0   0  15  85   0   0  35   0  20   0  38  78   0   0  31   0   0   0  12  77   0  77   0   0   0   0   0   0   0   0   0   0  38   0   0  93   0   0   0   0   0   0   0   0   0  75   0   0  11   0   0   0   0   0   0   0   0   4   0   0   0   0   0   0   0 
  0   0  93   0  68  57  80  14   0   0   0   0   0  86   0  18  79  76   0   0   0  65   5   0   0  19   0   0   0   0   0   0   0  61   0   0   0   0   0   0  97  12  36   0   0   0   0   0   0   0  70   0   0  30   0   0  11  96   0   0   0   0  22  28   0  12   0   0   0   0   0   0  63   1   0  21   5   0   0   0  31   0 
  0 100  94   0   0   0   0   0   0   0   0   0   0  27  67   0  97  35   0   0   0   0   0   0   0   0  85   0   0  24   0  93   0   0  16   0  38   0   0   0   0   0   0   0   0   0   0   0   0   0   0   0   0   0  50   0   0   0   0   0   0  34  20   0   0   0   0  58   0   0   0   0   0   0   0  52   0   0   0   0  32 
  0   0   0   0   0   0   0  42   0   0   0   0   0   0   0   0   0  90   0   0   0   0   0   0   0   0   0   0  24   0   0   0   0   0   0  76  97   0  19  18   0   0   0   0   0  46  53   0  41 100   0   0   0   0   0   0   0  27   0   0   0   0   0   0  49   0   0   0   0  27   0   0  13   0   0   0   0   0   0  39 
  0   1   0   0   0   0   0   0   0   0   0   0   0   0   0   0   0   0  43   0   0   0  69   0   0   0   0   0   0  14  98   0   0  19   0   0   0  49   0  75   0   1   0   0   0   0   0   0  32  30   0   0   0  14   0   0   0   0  22  99  31  40   0   0  57   0   0   0   0  33  27   0   0  19   0   0   0   0   0 
 80   0   0  68   0   0   0   0   0   0   0   0   0  42   0   0  49   0   0   0   0   0   0   0   4   0   0   0  68   0   0   0   0   0  39   0  11   0   0  34   0   0   0   0   0   0   0   0   0   0   0   0   0   0   0   0   0  86   0  50   0   3   0   0   0  93   0 100   0  60   0   0   0   0   0   0   0   0 
 56  46   0   0   0   0   0   0  81   0   0   0  70   0   0  30  57   2   0   0   0   0  64   0   0   0   0   0   0   0  95  13   0   0   0   0   0   0   0   0   0   0   0   0  65   0   0   0  33   0   0  92   0   0   0   0  87  87  85   0   0   9  47   0   0   0   0   0   0   0   0   0   0   0   0   0   0 
  0  55  29   0 100   0   0   0  37   0   0  90   0   0  52   0   0   0   3   0  25  82   0  76  10   0   0   0   0   0   0  90   0   0   0   0  18   0  16  26   2   0   0   0   0   0   0   4  72   0   0  93   0   0   0  72   7  14   0  91   0   0   0   0   0   0   9  25   0   0   0  62   0   0   0  58 
 40   0  49  95   6   0  96   0   0   0  88   0   0   0   0  56   4  35   0  71  74  24   0   0   0  11  78  41   0  53   0   0  78   0   0  90   0   7   0   0   0   0   0   0   0  59   0   0   0   0   0   0   0   0   0   0   0   0   0   0   0   0  55  62   0   0   0  88   0   0  74   0  78  64   0 
 84  87   0   0   0   0   6   0 100   0   0   0  73   0   0   0   0   0   6   0   0   0   2   0   0   3  37   0   0   0   0  17   0   0   0   0   0   0  73   0   0   0   0  19   0   0   0   0   0   0   0   0   0   0  20   0  93   0   0   0   0  30   0   0   0   0   0   0   0  70   0   0   0   0 
  0   0  63   0  62   0   0   0   2   0   0  71   1   0  66   0  42   0   0   0   0  32   0  66   0   0  18   0   0  87   0   0   8   0   0   0   0   0   0   0   0  69   0   0   0   0   0   0   0  96   0   0   0  30   0   0   0  16   0  78  51   0   0   0   0   0   0   0   0  75  61   0   0 
  0   0   7   0  82   0   0   0   0   0   0   0   0   0   0   0   0   0   0   0   0   0   0   0   0   1  90  51  53   0  40   0   0   0   0  47   0   0   0   0   0   0   0 100   0   0   0   0  31   0   0   0   0   0  57  93   0   0   0   0  51  69   0   0   0   0   0   0   0   2   3   0 
  0   0  49   0   0  25  91  94   0   0   0  87   0   0  20   0   0   0   0   0   0   0   0   0   0   0   0   0   0   0   0   0  82   0   0   0   0  67   0  50   0   0   0   0   0   0   0   6   0   0  85  77   0   0  35   0  23   0   0  74   0   0  80  40   8   0   0   0  98  83   0 
  0  84   0   0   0   0   0  45  84   0   0  38   0   0   0   0  36   2  35   0   0   0   0   0  24   7   0   0   0   0   0  44   0   0   7   0  52   0   0   0   0   0   0   0   0  16   0   0   0   0   0   0   0   0   0  78  57  45   0   0   0   0  86   0   0   0  82   0   0   0 
 53   0  15  40   0  58   4   0   0   0   0   0   0   0   0  84   0   0   0   0   0  55  29  56  20   0  90  44   0  79  30   0   2   0   0   0   0   0   0   0   0  47   0  52   0  40   0   0   0   0   0   0   0   0   0   0   0   0   0   0   0   0   0   0  64   0   0   0   0 
  0   0   0   0   0   0   0   0   6  81  17   0  55   0   0   0   0  60  43   0   0   0   0   0   0   0   0   0  68   0   0   0   0   0   0   0  41   0   0  40   0   0   0   0   0   0   0   0  89   0   0   0   0   0  35   0  70   0   0   0   0   0  52  83   0   0   0  11 
  0   0   0   0  86   0  72  13   0   6   0   0  62  66   0   0   0  94   0   0   0   9   0   0   0  11   0   0   0   0  85   0   0   0   0  71   0   0  79   0   0  39   0   0   0   0  69  28   0   0   0   0   0  95  28   0   0   0   0  62   0   0   0  18  73   0  11 
  0   0   0   0  40   0   0   0   0   0   0   0  46  55   0   0   0   0   0   0   0  26   0  86  29  93   0   0   0  47   0  51   0   0   0   0   0   0   0   0   0   0   0   0  62   0  89  13   0   0   0   0   0   0   0   0   0   0   0   0   0  17   8   0   8  38 
  0   0   0   0   0   0   0   0   0   0   0   0   0   0   0   0   0  35   0   0   0  79   0   0  61   0   0   0  73   0  90   0   0   0   0   0   0   0   0   0   0   0   0   0   0   0   0   0   0  85   0   0   0  47  92  72   0   0  32   0   7   0   0  39   0 
  0   0   0   0   0   0   0   0   0  44   1   0   0   0  28   0  23  84   0  64 100   0   0   0   0   0   0   0   0   0   0   0   0   0   0   0   0   0  65   0  92   0  11   0   0   0   0   0   0  34   0   0   0   0   4   0   0   0   0   0   0   0   0   0 
  0   0  40   0   0   0   0   1   0   0  80   0  26   0   0   0   0  57   0  68   0   0   0   0   0   0  66   0   0   0   0   0   0   0   0   0   0   0   0   0   0   0  52   0   0   0   0   0   0  85   0   0   0   0   0  73   0   0   0   0   0   0   0 
  0   0  77   0  39   0   0   0  36  90   0  88   0   0   0   0   0  10   0   0   0   0   0   0   0   0   0   0   0   0   0   0  87   0   0   0   0   0   0   0   0   0   0   0  39   0  38   0   0   0   0   0   0   0   0   0  58   0  98   0   0   0 
  0   0   0   0   0   0   0   0   0   0   0   0  45   0   0   0   0   0  82   0  20   0   0   0   0   0  62  51  71  18  36   0  15   0   0   0  29   0   0  31   0  50   0   0   0   0   0   0   0   0  86   0   6  15  99   8   6   0   0   0   8 
  0  71   0   0   0  29  87   0   0   0   0  39   0  22   0   0   0   3  87  44   0   0   0   0  11   0   0  57   0   0   0   0   0  18  16   0  17  88   0  45   0   0   0   0   0  61   0   0  11   0  23   0   0   0   0   0  85   0  69   0 
  0   0   0   0  22  16   0   0   0  58   0   0  91   0   0   0   0  52  88   0   0   0   0  59   0   0   0   0   0   0   0   0   0   0   0   0  51   0   0  41   0   0  41   0  49  78   0  40   0  82   0  75   0   0   0   0   0  92   0 
  0  85  85   0   0  55   0   0  93   0  26   0  16   0   0  35  17   0   0   0  92   0   0   0   0   0  20   0   0   0   0   0   0   0   0  67   0   0   0   0  46   0   0   0   0   0   5   0   0   0   0   0   0   0   0  68   0   0 
  0   0   0  65   0   0   0   5   0   0   0   0   0   0   0  70   0   0   0   0   0   0   0   0  21  80   0   0   0   0   0   0   0   0   0   0   0   0   0   0  21   0   0   0   0   0  67  25   0   0   0   0   0   0   0   0   0 
 95  55  48   0   0   0   0   0  98   0  48   0   0   0   0   0  79   0   0   0   0  22   0   0   0   0   0   0   0   0   0   0   0   0   0   0   0   0   0   0   0   0  77   0   0   0   0  95   0  76  94   0   0  18   0  70 
  0  88   0   0   0   0   0  82   0   0   0   0   0   0  61  86   0   0  58   0   0   0   0   0   0  55  35   0   0   0   0   0   0   0  49   0   0  25   0   0   0   0   0  60  13   0  14  43   0  31  41  53   0   0   0 
 48   0   0   0   0   0   0   0   0  92   0   2  53   0  71   0   0   0  85   0   0   0   0   0   0   0   0   0   0   0   0   0   3   0   0   0   0   0   0   0   0  59   0   0   0   0   0   0  99  78   0   0  27   0 
 43   0   0   0   0   0   0   0   0   0   0   0   0   0   0   0   0  87  27   0   0   0   0   0  66   0   0   0  97   0   0   0   1  50  12   0   0   0   0   0   0   0   0   6   0   0   0   0  88   0  51   0  62 
 89   0   0   0   0   0   0  33   0  35   0   0   0   0   0  75   0  42   0   0  51   0  76   0   0   0   0  21   0  93   2   0   0   0   0   0   0   0  16   0  38  62  79  94   0   5  14   0   7   0   0   0 
  0   0   0   0  17   0   0   0  92   0  70   0   0  58   0   0   0   0   0   0   0  38   7  21  37   0   0  55   0  57   3  55   0   0   0  44   0   0   0   0   0   0   0  56   0   0   0   0   0   0  27 
  0   0   0   0  97   0   0  52   0  33   0  21  57   0  39  61   0  49   0   0   0  42   0   0  71   0  15  46  63  17   0   0   0   0   0   0   0   0   0  31   0   0   0  88   0   0  12   0  23   0 
  0   0   6   0   0   0   0   0   0  65   0   0   0   0   0   0   0  25   0  22   0   0   0  88   0  70  73   0   0  65   0   0   0   0   0   0   0   0   0   0   0   0  43   0   0   0   0   0  87 
  0   0   0  25  10   0   0   0  83  80   0   0   0   0   0  71   0   0   0   0   0   0   0  87   0   0   0   0   0   0  86   0  32  76   0  60  78  37   0   0   0   0   0   0   0  75   0   0 
  0   0   0   0   0   0   0   0   0  41  52   0   0   0   0   0   0   0  35   0   0   0  18   0   0   0   0   0   0   0   0  13   0   0   0   0 100   0   0  78   0   0   0   0   0   0   0 
  0   0   0  51   0   0  46   0   0  14  72   0   0   0   0   0   0   0   0   0   0  27   0  97  88   0  78   5   0   0   0   0  33   0   0  69   0   0   0   0   0   0   5   0   0  39 
  0  73  85   0   0   0   0   0   0   0  40   0   0   0   0   0   0   0   0   0   0  32  77   0   0  58   0   0   0  78   0   0  15   0   0   0   0   0  30   0  24  92   0  37   0 
  0   0   0  35  73   0   0  97   0   0  66   0   0  78   0   0  17   0   0   0  15   0  26   0   0   0   0   0   0   0   0   0   0   0   0   0  17   0   0   0   0   0   0   0 
  0   0   0   0   0  53   0  38   0   0  76  15   0   0   0   9   0   0   0   0   0  29   0   0   0  30   0   0  34   0   0   0   0   0  55  95  59   0  88   0  45   0   0 
  0   0   0   0   0   0   0   0   0   0   0   0   0  64   0   0   3   0   0   0  24   4   0   0   0   0   0   0   0   0   0   0   0   0   0   0   0  57  49   0  35   0 
  5   0  41  97  66   0   0   0   0   0   0   0   0   0   0  52   0   2   7  79   0   0  46   0  45   0   0   0   0   0  69   0   0   0   0   0   0   0   0   0   0 
  0  60   0   0   0   0   0   0  96   0   0   0   0   0   0   0  54   1   0   0   0   0   0   0   0   0   0   0   0   0   0   0   0   0   0  68   0   0   0   0 
  0  60   0   0   0  74   0   0   0   0  96   0   0   0   0   0  47   0   0   0   0  99   0   0   0  30   0   1   0   0  85   0   0  46   0  48   0   0  31 
  0   0   0  24   0   0  69   0   0   0   0   0   0   0   0   0   0  68  51  20  53   0   0   0   0  28   0   0  20   0   0   0   0  82   0  83   0  61 
  0   0  43   0   0   0   0   0   0   0  52   0   0   0   0   0   0  75   0   0   0   0   0   0   0   0  74   0   0   0   0   0   0   0   0   0   0 
 23  59   0   0   0   0   0   0  52  64   0   0   0   0  31   0   0   0   0   0   0   9   0   0  98   0   0   0   0   0   0   0   0   0   0   0 
  0  83   0   0   0  90   0   0   0  26   0   0   0  56   0   0   0  62   0   0   0   0  44   0   0   8   0   0   0   0   0  78   0   0   0 
 26   0   0  94   0   0   0   0   0   0   0   0   0   0   0   0   0   0  56  23   0  26  82   0   0   0   0   0   0   0   0   0  66   0 
  0   0  92   0   0  72   0   0   0   0   0   0   0   0  36   0   0   0   0   0   0   0   0  58   0   0   0   0   0   0  67   0   0 
  0   0  21   0   0  18   0   0   0   0  96   0   0   0  30  98   0   0   0   0   0   0  63   0  97   0   0   0   0  85   0   0 
  0   0   0   0   0   0   0   0  17   0   0  25  27   0  99  40   0   0   0   0  23   0   0   0   0   0  60  47   0  43   0 
  0   0   0   0   0   0   0   0   0   0   0  12   0   0   0   0   0  84   0  29   0   0   0   0   0   0   0  91  87  19 
  0   0   0   0  85  59   0  43   0   0   0  73  26   0  63   0   0   0   0  51   0   0   0   0  94   0   0   0   0 
  0   0   0  17   0   0   0   0   0  40   0   0  88   0   0   0   0   0   0   0  55   0   0   0   0   0   0   0 
  0   0   0   0  10  67  75   0   0   0  24   0  92   0   0  75   0   0   0  77  48   0   0   0   0   2   0 
 61  98   0   0  54   0   0   0   0  37   0   0   0   0  47   0   0   0   0   0   0  37   0   0   0   0 
  0   0  67   0   0   0   0  97   0   0   0   0  45   0  70   0   0   0  94  31  90   0   0   0  82 
  0   0   0   0  51   0   0   0   0  86  13   0  92   0   0   0   0   2  30   0  37  43   0   0 
  0   0   0   0   0   0   0   0  99   0  72   2   0   0   0   0  53   0   0   0   0   0  32 
  0   0   0   0   0   0   0   0   0  39   0   0  16   0  53   0   0   0   0   0   0  89 
  0  98   0  54   0   0  41   0  74   0   0  72   0   0   0   0   0   0   0  59   0 
  0   0   0  58   0   0   0   0  92   0   0   0   0  45   0   0   0  59   0   0 
  0   0   0   0   0   0   0   0  12   0   0   0  18   0   0   0  69   0   0 
  7   0   0  88   0  89  24  66  49   0   0   0  20   0   0   0   0   0 
  0   0  81   0   0   0  14   0  72   0   0  14   0   0   0   0   0 
  0   0  48   0   0   0   0  68  69   0   0   0  71   0 100  79 
  0   0  23   0   0   0  55   0   0   0   0   0   0   0  35 
  0  14   0   0   0  65  31   0   0   0   0   0   0   0 
  0   0  39   1   0   0   0   0   0   0  41   0  81 
  0   0   0  91   0   0   0   0   0  55   0   0 
  0   0   0   0 100  49  87   0   0   0   0 
  0   0  71   0   0  63  90  66   0   0 
 64   0   0   0   0   0   0   0   0 
 71   0  98   0   0   0   0  48 
  0   0  40  52  89   0   0 
  0   0   0   0  99   0 
  0   0  14   0   0 
  0   0   0   0 
  0   0  99 
 52   0 
  0 

0
619
 45   6  47  31  47  49  14  15  23   4  15  17   3  32  27   9  10   4   4  33  41  21   2   1  19  45  17  28  13  16   3  45  44  11  11  46  49   4  20   3  25  39   7  17  20  42  28   5  10  25   1  33  41  31   4  48   1  44  18  28   1   5  50  33  39  24  23  16   5  14  17   1  45  36  44  13  35  27  23  41  44  14  25  38  43   4   3   3  44  41  21  43   4  32   2  35  49  47  37   4 

Comments

Density             : 25.00 %

